JOBS = 1..4;
MACHINES = 1..3;
SPEED = 1;
time = array3d(JOBS,MACHINES,1..SPEED,[95,26,95,86,41,14,28,53,95,56,38,39]);
energy = array3d(JOBS,MACHINES,1..SPEED,[38,77,38,42,66,86,75,58,38,57,68,67]);
precedence = array2d(JOBS,MACHINES,[1,2,0,0,2,1,0,2,1,2,0,1]);
ME = 1;
TE = 131;
st_old = array2d(JOBS,MACHINES,[114,209,0,28,148,134,0,243,148,240,0,95]);
SpeedScaling = array2d(JOBS,MACHINES,[1,1,1,1,1,1,1,1,1,1,1,1]);
